p wcnf 11 17 10
5 -1 0
5 -2 0
5 -3 0
5 -4 0
5 -5 0
5 -6 0
5 -7 0
5 -8 0
5 -9 0
5 -10 0
10 1 2 3 4 5 6 7 8 9 10 0
10 11 0
x 10 1 6 7 10 11 0
x 10 2 6 7 8 9 11 0
x 10 3 7 10 11 0
x 10 4 6 7 10 11 0
x 10 5 6 8 9 10 11 0
